p cnf 16 54
4 7 11 16 22 29 37 46 0
8 12 17 23 30 38 47 57 0
-4 -8 0
-7 -12 0
-11 -17 0
-16 -23 0
-22 -30 0
-29 -38 0
-37 -47 0
-46 -57 0
-4 -12 0
-4 -17 0
-4 -23 0
-4 -30 0
-4 -47 0
-4 -57 0
-7 -17 0
-7 -30 0
-7 -38 0
-7 -47 0
-11 -23 0
-11 -30 0
-11 -38 0
-11 -57 0
-16 -30 0
-16 -47 0
-16 -57 0
-22 -38 0
-22 -47 0
-22 -57 0
-29 -47 0
-37 -57 0
-8 -7 0
-8 -11 0
-8 -16 0
-8 -22 0
-8 -37 0
-8 -46 0
-12 -11 0
-12 -22 0
-12 -29 0
-12 -37 0
-17 -16 0
-17 -22 0
-17 -29 0
-17 -46 0
-23 -22 0
-23 -37 0
-23 -46 0
-30 -29 0
-30 -37 0
-30 -46 0
-38 -37 0
-47 -46 0
